unknown
(model
; cardinality of BoundSet is 2
(declare-sort BoundSet 0)
; rep: @uc_BoundSet_0
; rep: @uc_BoundSet_1
; cardinality of UnboundSet is 1
(declare-sort UnboundSet 0)
(declare-fun groundTerm_3 () UnboundSet)
(define-fun IsWalking ((BOUND_VARIABLE_382 BoundSet)) Bool true)
(define-fun IsInNature ((BOUND_VARIABLE_382 BoundSet)) Bool true)
(define-fun IsAt ((BOUND_VARIABLE_394 BoundSet) (BOUND_VARIABLE_395 BoundSet)) Bool false)
)
sat
(model
; cardinality of BoundSet is 1
(declare-sort BoundSet 0)
; rep: @uc_BoundSet_0
; cardinality of UnboundSet is 1
(declare-sort UnboundSet 0)
(declare-fun groundTerm_5 () UnboundSet)
(define-fun IsWalking ((BOUND_VARIABLE_412 BoundSet)) Bool true)
(define-fun IsInNature ((BOUND_VARIABLE_412 BoundSet)) Bool true)
(define-fun IsAt ((BOUND_VARIABLE_420 BoundSet) (BOUND_VARIABLE_421 BoundSet)) Bool false)
)
